1 1 1 11 1 1
1 1 2 10 2 1
1 1 3 14 3 1
1 1 4 12 4 1
1 1 5 8 6 1
1 1 6 17 1 1
1 1 7 5 2 1
1 1 8 7 3 1
1 1 9 15 4 1
1 1 10 0 6 1
1 2 1 6 1 1
1 2 2 8 2 2
1 2 3 5 3 2
1 2 4 2 4 1
1 2 5 14 6 2
1 2 6 3 1 1
1 2 7 12 2 2
1 2 8 9 3 1
1 2 9 15 5 2
1 2 10 11 6 2
1 3 1 19 1 1
1 3 2 9 2 2
1 3 3 18 3 1
1 3 4 2 5 2
1 3 5 10 6 2
1 3 6 7 1 2
1 3 7 0 2 2
1 3 8 6 3 2
1 3 9 17 4 2
1 3 10 5 6 3
1 4 1 5 1 4
1 4 2 18 2 2
1 4 3 19 3 2
1 4 4 3 4 2
1 4 5 1 6 1
1 4 6 13 1 1
1 4 7 17 2 3
1 4 8 15 3 3
1 4 9 4 4 1
1 4 10 9 6 3
1 5 1 8 1 3
1 5 2 3 2 3
1 5 3 0 3 3
1 5 4 18 4 3
1 5 5 6 6 3
1 5 6 12 1 3
1 5 7 19 2 3
1 5 8 17 3 4
1 5 9 4 5 2
1 5 10 2 6 3
2 1 25 17 12 5
2 1 26 5 12 5
2 1 27 16 13 1
2 1 28 0 13 4
2 1 29 3 13 4
2 1 14 15 8 4
2 1 15 1 8 2
2 2 41 5 19 6
2 2 42 1 19 3
2 2 43 6 21 4
2 2 44 10 21 3
2 2 45 9 21 4
2 2 46 7 22 3
2 2 47 16 22 2
2 2 48 13 22 2
2 2 14 14 8 3
2 2 15 19 8 4
2 2 11 15 7 5
2 2 12 18 7 4
2 2 13 17 7 6
2 3 14 0 8 5
2 3 15 9 8 5
2 3 11 4 7 3
2 3 12 16 7 3
2 3 13 12 7 4
2 3 30 6 15 5
2 3 31 17 15 7
2 3 32 19 15 5
2 3 33 10 16 4
2 3 34 14 16 4
2 3 35 18 16 5
2 3 36 7 17 4
2 3 37 8 17 4
2 3 38 15 17 6
2 3 39 3 18 5
2 3 40 13 18 3
2 4 14 1 9 4
2 4 15 17 8 8
2 4 11 6 7 6
2 4 12 10 7 5
2 4 13 11 7 3
2 4 30 12 15 5
2 4 31 8 15 5
2 4 32 3 15 6
2 4 33 5 16 7
2 4 34 4 16 4
2 4 35 2 16 4
2 4 36 13 17 4
2 4 37 0 17 6
2 4 38 19 17 6
2 4 39 14 18 5
2 4 40 18 18 6
2 5 14 14 9 6
2 5 15 18 8 7
2 5 16 8 10 6
2 5 17 19 10 7
2 5 18 12 10 6
2 5 19 17 11 9
2 5 20 7 11 5
2 5 21 9 11 6
2 5 22 15 10 7
2 5 23 2 10 5
2 5 24 4 10 5
2 6 14 10 8 6
2 6 15 12 8 7
2 6 16 14 10 7
2 6 17 9 10 7
2 6 18 7 10 6
2 6 19 5 11 8
2 6 20 16 11 4
2 6 21 15 11 8
2 6 22 3 10 7
2 6 23 0 10 7
2 6 24 6 10 7
3 1 59 5 26 9
3 1 60 1 26 5
3 1 61 7 27 7
3 1 62 9 27 8
3 1 63 10 27 7
3 1 64 4 27 6
3 1 65 8 28 7
3 1 66 0 28 8
3 1 67 18 28 8
3 1 68 2 30 6
3 1 69 15 30 9
3 2 82 18 35 9
3 2 83 15 35 10
3 2 84 17 37 10
3 2 85 5 37 10
3 2 86 11 37 4
3 2 87 19 39 8
3 2 88 4 39 7
3 2 89 10 39 8
3 3 70 6 31 8
3 3 71 16 31 5
3 3 72 14 31 8
3 3 73 15 32 11
3 3 74 0 32 9
3 3 75 17 32 11
3 3 76 13 33 5
3 3 77 8 33 8
3 3 78 5 33 11
3 3 79 12 34 8
3 3 80 1 34 6
3 3 81 19 34 9
3 4 49 0 23 10
3 4 50 13 23 6
3 4 51 16 23 6
3 4 52 12 24 9
3 4 53 4 24 8
3 4 54 7 24 8
3 4 55 11 25 5
3 4 56 10 25 9
3 4 57 6 25 9
3 4 58 5 25 12
4 1 90 16 40 7
4 1 91 11 40 6
4 1 103 17 52 12
4 1 104 19 52 10
4 1 105 13 53 7
4 1 106 18 53 10
4 1 107 4 54 9
4 1 108 8 54 9
4 1 109 7 54 9
4 1 110 0 55 11
4 1 111 9 55 9
4 1 112 2 55 7
4 1 113 3 56 8
4 1 114 1 56 7
4 1 115 12 56 10
4 2 90 2 40 8
4 2 91 7 40 10
4 2 135 19 65 11
4 2 136 11 65 7
4 2 137 13 66 8
4 2 138 14 66 9
4 2 139 0 67 12
4 2 140 6 68 10
4 2 141 16 68 8
4 2 142 8 69 10
4 2 143 18 69 11
4 2 144 5 70 13
4 2 145 4 70 10
4 2 146 17 70 13
4 2 147 3 71 9
4 2 148 12 71 11
4 2 149 1 71 8
4 2 150 10 72 10
4 2 151 15 72 12
4 3 90 9 40 10
4 3 91 19 40 12
4 3 116 14 57 10
4 3 117 5 57 14
4 3 118 6 58 11
4 3 119 17 58 14
4 3 120 11 59 8
4 3 121 2 59 9
4 3 122 10 59 11
4 3 123 1 61 9
4 3 124 7 61 11
4 3 125 0 61 13
4 3 126 16 62 9
4 3 127 4 62 11
4 3 128 8 62 11
4 3 129 15 63 13
4 3 130 13 63 9
4 3 131 12 63 12
4 3 132 3 64 10
4 3 133 18 64 12
4 4 90 14 40 11
4 4 91 7 41 12
4 4 92 0 43 14
4 4 93 19 43 13
4 4 94 3 44 11
4 4 95 10 44 12
4 4 96 6 47 12
4 4 97 1 47 10
4 4 98 18 49 13
4 4 99 11 49 9
4 4 100 12 49 13
4 4 101 13 50 10
4 4 102 4 50 12
